; benchmark generated from python API
(set-info :status unknown)
(declare-fun x_months () Int)
(declare-fun x_beta () Int)
(assert
 (<= (- 1200) x_months))
(assert
 (>= 1199 x_months))
(assert
 (let ((?x2373 (mod x_months 48)))
 (let ((?x211 ((as const (Array Int Int)) 0)))
 (let ((?x213 (store ?x211 0 31)))
 (let ((?x216 (store ?x213 1 30)))
 (let ((?x218 (store ?x216 2 31)))
 (let ((?x220 (store ?x218 3 30)))
 (let ((?x222 (store ?x220 4 31)))
 (let ((?x224 (store ?x222 5 31)))
 (let ((?x226 (store ?x224 6 30)))
 (let ((?x228 (store ?x226 7 31)))
 (let ((?x230 (store ?x228 8 30)))
 (let ((?x232 (store ?x230 9 31)))
 (let ((?x234 (store ?x232 10 31)))
 (let ((?x237 (store ?x234 11 28)))
 (let ((?x239 (store ?x237 12 31)))
 (let ((?x241 (store ?x239 13 30)))
 (let ((?x243 (store ?x241 14 31)))
 (let ((?x245 (store ?x243 15 30)))
 (let ((?x247 (store ?x245 16 31)))
 (let ((?x249 (store ?x247 17 31)))
 (let ((?x251 (store ?x249 18 30)))
 (let ((?x253 (store ?x251 19 31)))
 (let ((?x255 (store ?x253 20 30)))
 (let ((?x257 (store ?x255 21 31)))
 (let ((?x259 (store ?x257 22 31)))
 (let ((?x261 (store ?x259 23 28)))
 (let ((?x263 (store ?x261 24 31)))
 (let ((?x265 (store ?x263 25 30)))
 (let ((?x267 (store ?x265 26 31)))
 (let ((?x269 (store ?x267 27 30)))
 (let ((?x270 (store ?x269 28 31)))
 (let ((?x272 (store ?x270 29 31)))
 (let ((?x273 (store ?x272 30 30)))
 (let ((?x274 (store ?x273 31 31)))
 (let ((?x276 (store ?x274 32 30)))
 (let ((?x278 (store ?x276 33 31)))
 (let ((?x280 (store ?x278 34 31)))
 (let ((?x282 (store ?x280 35 28)))
 (let ((?x284 (store ?x282 36 31)))
 (let ((?x286 (store ?x284 37 30)))
 (let ((?x288 (store ?x286 38 31)))
 (let ((?x290 (store ?x288 39 30)))
 (let ((?x292 (store ?x290 40 31)))
 (let ((?x294 (store ?x292 41 31)))
 (let ((?x296 (store ?x294 42 30)))
 (let ((?x298 (store ?x296 43 31)))
 (let ((?x300 (store ?x298 44 30)))
 (let ((?x302 (store ?x300 45 31)))
 (let ((?x304 (store ?x302 46 31)))
 (let ((?x306 (store ?x304 47 29)))
 (let ((?x4349 (select ?x306 ?x2373)))
 (let ((?x910 (ite (or (= 22802 (+ x_months 24003)) (= 25202 (+ x_months 24003))) 28 ?x4349)))
 (let (($x2026 (<= 0 x_beta)))
 (and $x2026 (< x_beta ?x910))))))))))))))))))))))))))))))))))))))))))))))))))))))))
(assert
 (let (($x2026 (<= 0 x_beta)))
 (or (> x_months (- (+ (* 2019 12) 12) 24003)) (and (= x_months (- (+ (* 2019 12) 12) 24003)) $x2026))))
(assert
 (let (($x5290 (and (= x_months (- (+ (* 2020 12) 2) 24003)) (>= 28 x_beta))))
 (or (< x_months (- (+ (* 2020 12) 2) 24003)) $x5290)))
(assert
 (let ((?x4168 (+ x_months 0)))
(let ((?x5327 (mod ?x4168 48)))
(let ((?x6517 (ite (> 22803 (+ ?x4168 24003)) 1 (ite (<= 25203 (+ ?x4168 24003)) (- 1) 0))))
(let ((?x211 ((as const (Array Int Int)) 0)))
(let ((?x213 (store ?x211 0 31)))
(let ((?x216 (store ?x213 1 30)))
(let ((?x218 (store ?x216 2 31)))
(let ((?x220 (store ?x218 3 30)))
(let ((?x222 (store ?x220 4 31)))
(let ((?x224 (store ?x222 5 31)))
(let ((?x226 (store ?x224 6 30)))
(let ((?x228 (store ?x226 7 31)))
(let ((?x230 (store ?x228 8 30)))
(let ((?x232 (store ?x230 9 31)))
(let ((?x234 (store ?x232 10 31)))
(let ((?x237 (store ?x234 11 28)))
(let ((?x239 (store ?x237 12 31)))
(let ((?x241 (store ?x239 13 30)))
(let ((?x243 (store ?x241 14 31)))
(let ((?x245 (store ?x243 15 30)))
(let ((?x247 (store ?x245 16 31)))
(let ((?x249 (store ?x247 17 31)))
(let ((?x251 (store ?x249 18 30)))
(let ((?x253 (store ?x251 19 31)))
(let ((?x255 (store ?x253 20 30)))
(let ((?x257 (store ?x255 21 31)))
(let ((?x259 (store ?x257 22 31)))
(let ((?x261 (store ?x259 23 28)))
(let ((?x263 (store ?x261 24 31)))
(let ((?x265 (store ?x263 25 30)))
(let ((?x267 (store ?x265 26 31)))
(let ((?x269 (store ?x267 27 30)))
(let ((?x270 (store ?x269 28 31)))
(let ((?x272 (store ?x270 29 31)))
(let ((?x273 (store ?x272 30 30)))
(let ((?x274 (store ?x273 31 31)))
(let ((?x276 (store ?x274 32 30)))
(let ((?x278 (store ?x276 33 31)))
(let ((?x280 (store ?x278 34 31)))
(let ((?x282 (store ?x280 35 28)))
(let ((?x284 (store ?x282 36 31)))
(let ((?x286 (store ?x284 37 30)))
(let ((?x288 (store ?x286 38 31)))
(let ((?x290 (store ?x288 39 30)))
(let ((?x292 (store ?x290 40 31)))
(let ((?x294 (store ?x292 41 31)))
(let ((?x296 (store ?x294 42 30)))
(let ((?x298 (store ?x296 43 31)))
(let ((?x300 (store ?x298 44 30)))
(let ((?x302 (store ?x300 45 31)))
(let ((?x304 (store ?x302 46 31)))
(let ((?x306 (store ?x304 47 29)))
(let ((?x6947 (ite (or (= 22802 (+ ?x4168 24003)) (= 25202 (+ ?x4168 24003))) 28 (select ?x306 ?x5327))))
(let ((?x6265 (- ?x6947 1)))
(let (($x5915 (> 0 x_beta)))
(let ((?x312 (store (store (store (store ?x211 0 0) 1 31) 2 61) 3 92)))
(let ((?x320 (store (store (store (store ?x312 4 122) 5 153) 6 184) 7 214)))
(let ((?x328 (store (store (store (store ?x320 8 245) 9 275) 10 306) 11 337)))
(let ((?x336 (store (store (store (store ?x328 12 365) 13 396) 14 426) 15 457)))
(let ((?x344 (store (store (store (store ?x336 16 487) 17 518) 18 549) 19 579)))
(let ((?x352 (store (store (store (store ?x344 20 610) 21 640) 22 671) 23 702)))
(let ((?x360 (store (store (store (store ?x352 24 730) 25 761) 26 791) 27 822)))
(let ((?x368 (store (store (store (store ?x360 28 852) 29 883) 30 914) 31 944)))
(let ((?x376 (store (store (store (store ?x368 32 975) 33 1005) 34 1036) 35 1067)))
(let ((?x384 (store (store (store (store ?x376 36 1095) 37 1126) 38 1156) 39 1187)))
(let ((?x392 (store (store (store (store ?x384 40 1217) 41 1248) 42 1279) 43 1309)))
(let ((?x400 (store (store (store (store ?x392 44 1340) 45 1370) 46 1401) 47 1432)))
(let ((?x4235 (+ (select ?x400 ?x5327) (ite $x5915 0 (ite (> x_beta ?x6265) ?x6265 x_beta)))))
(let ((?x6529 (+ (+ ?x4235 ?x6517) 366)))
(let ((?x6831 (+ ?x4168 (* (div ?x6529 1461) 48))))
(let ((?x5901 (+ (+ ?x6831 (- 1 ?x5327)) 24003)))
(let ((?x5134 (select ?x400 1)))
(let ((?x4650 (mod ?x6529 1461)))
(let (($x6502 (>= ?x4650 (+ ?x5134 (ite (> 22803 ?x5901) 1 (ite (<= 25203 ?x5901) (- 1) 0))))))
(let ((?x6475 (ite (> 22803 (+ (+ ?x6831 (- 2 ?x5327)) 24003)) 1 (ite (<= 25203 (+ (+ ?x6831 (- 2 ?x5327)) 24003)) (- 1) 0))))
(let ((?x5386 (select ?x400 2)))
(let ((?x6436 (ite (> 22803 (+ (+ ?x6831 (- 3 ?x5327)) 24003)) 1 (ite (<= 25203 (+ (+ ?x6831 (- 3 ?x5327)) 24003)) (- 1) 0))))
(let ((?x4394 (select ?x400 3)))
(let ((?x6383 (ite (>= ?x4650 (+ ?x4394 ?x6436)) 3 (ite (>= ?x4650 (+ ?x5386 ?x6475)) 2 (ite $x6502 1 0)))))
(let ((?x6384 (ite (> 22803 (+ (+ ?x6831 (- 4 ?x5327)) 24003)) 1 (ite (<= 25203 (+ (+ ?x6831 (- 4 ?x5327)) 24003)) (- 1) 0))))
(let ((?x5743 (select ?x400 4)))
(let ((?x6557 (ite (> 22803 (+ (+ ?x6831 (- 5 ?x5327)) 24003)) 1 (ite (<= 25203 (+ (+ ?x6831 (- 5 ?x5327)) 24003)) (- 1) 0))))
(let ((?x5790 (select ?x400 5)))
(let ((?x5853 (ite (>= ?x4650 (+ ?x5790 ?x6557)) 5 (ite (>= ?x4650 (+ ?x5743 ?x6384)) 4 ?x6383))))
(let ((?x6798 (ite (> 22803 (+ (+ ?x6831 (- 6 ?x5327)) 24003)) 1 (ite (<= 25203 (+ (+ ?x6831 (- 6 ?x5327)) 24003)) (- 1) 0))))
(let ((?x5409 (select ?x400 6)))
(let ((?x5868 (ite (> 22803 (+ (+ ?x6831 (- 7 ?x5327)) 24003)) 1 (ite (<= 25203 (+ (+ ?x6831 (- 7 ?x5327)) 24003)) (- 1) 0))))
(let ((?x5246 (select ?x400 7)))
(let ((?x4206 (ite (>= ?x4650 (+ ?x5246 ?x5868)) 7 (ite (>= ?x4650 (+ ?x5409 ?x6798)) 6 ?x5853))))
(let ((?x6635 (ite (> 22803 (+ (+ ?x6831 (- 8 ?x5327)) 24003)) 1 (ite (<= 25203 (+ (+ ?x6831 (- 8 ?x5327)) 24003)) (- 1) 0))))
(let ((?x4845 (select ?x400 8)))
(let ((?x5141 (ite (> 22803 (+ (+ ?x6831 (- 9 ?x5327)) 24003)) 1 (ite (<= 25203 (+ (+ ?x6831 (- 9 ?x5327)) 24003)) (- 1) 0))))
(let ((?x6953 (select ?x400 9)))
(let ((?x6354 (ite (>= ?x4650 (+ ?x6953 ?x5141)) 9 (ite (>= ?x4650 (+ ?x4845 ?x6635)) 8 ?x4206))))
(let ((?x6185 (ite (> 22803 (+ (+ ?x6831 (- 10 ?x5327)) 24003)) 1 (ite (<= 25203 (+ (+ ?x6831 (- 10 ?x5327)) 24003)) (- 1) 0))))
(let ((?x5271 (select ?x400 10)))
(let ((?x6455 (ite (> 22803 (+ (+ ?x6831 (- 11 ?x5327)) 24003)) 1 (ite (<= 25203 (+ (+ ?x6831 (- 11 ?x5327)) 24003)) (- 1) 0))))
(let ((?x4457 (select ?x400 11)))
(let ((?x4787 (ite (>= ?x4650 (+ ?x4457 ?x6455)) 11 (ite (>= ?x4650 (+ ?x5271 ?x6185)) 10 ?x6354))))
(let ((?x6480 (ite (> 22803 (+ (+ ?x6831 (- 12 ?x5327)) 24003)) 1 (ite (<= 25203 (+ (+ ?x6831 (- 12 ?x5327)) 24003)) (- 1) 0))))
(let ((?x2465 (select ?x400 12)))
(let ((?x5657 (ite (> 22803 (+ (+ ?x6831 (- 13 ?x5327)) 24003)) 1 (ite (<= 25203 (+ (+ ?x6831 (- 13 ?x5327)) 24003)) (- 1) 0))))
(let ((?x4364 (select ?x400 13)))
(let ((?x6156 (ite (>= ?x4650 (+ ?x4364 ?x5657)) 13 (ite (>= ?x4650 (+ ?x2465 ?x6480)) 12 ?x4787))))
(let ((?x6099 (ite (> 22803 (+ (+ ?x6831 (- 14 ?x5327)) 24003)) 1 (ite (<= 25203 (+ (+ ?x6831 (- 14 ?x5327)) 24003)) (- 1) 0))))
(let ((?x4181 (select ?x400 14)))
(let ((?x4855 (ite (> 22803 (+ (+ ?x6831 (- 15 ?x5327)) 24003)) 1 (ite (<= 25203 (+ (+ ?x6831 (- 15 ?x5327)) 24003)) (- 1) 0))))
(let ((?x1452 (select ?x400 15)))
(let ((?x5870 (ite (>= ?x4650 (+ ?x1452 ?x4855)) 15 (ite (>= ?x4650 (+ ?x4181 ?x6099)) 14 ?x6156))))
(let ((?x6096 (ite (> 22803 (+ (+ ?x6831 (- 16 ?x5327)) 24003)) 1 (ite (<= 25203 (+ (+ ?x6831 (- 16 ?x5327)) 24003)) (- 1) 0))))
(let ((?x5903 (select ?x400 16)))
(let ((?x6081 (ite (> 22803 (+ (+ ?x6831 (- 17 ?x5327)) 24003)) 1 (ite (<= 25203 (+ (+ ?x6831 (- 17 ?x5327)) 24003)) (- 1) 0))))
(let ((?x5499 (select ?x400 17)))
(let ((?x2732 (ite (>= ?x4650 (+ ?x5499 ?x6081)) 17 (ite (>= ?x4650 (+ ?x5903 ?x6096)) 16 ?x5870))))
(let ((?x6962 (ite (> 22803 (+ (+ ?x6831 (- 18 ?x5327)) 24003)) 1 (ite (<= 25203 (+ (+ ?x6831 (- 18 ?x5327)) 24003)) (- 1) 0))))
(let ((?x5586 (select ?x400 18)))
(let ((?x4158 (ite (> 22803 (+ (+ ?x6831 (- 19 ?x5327)) 24003)) 1 (ite (<= 25203 (+ (+ ?x6831 (- 19 ?x5327)) 24003)) (- 1) 0))))
(let ((?x3177 (select ?x400 19)))
(let ((?x5719 (ite (>= ?x4650 (+ ?x3177 ?x4158)) 19 (ite (>= ?x4650 (+ ?x5586 ?x6962)) 18 ?x2732))))
(let ((?x5317 (ite (> 22803 (+ (+ ?x6831 (- 20 ?x5327)) 24003)) 1 (ite (<= 25203 (+ (+ ?x6831 (- 20 ?x5327)) 24003)) (- 1) 0))))
(let ((?x5204 (select ?x400 20)))
(let ((?x5966 (ite (> 22803 (+ (+ ?x6831 (- 21 ?x5327)) 24003)) 1 (ite (<= 25203 (+ (+ ?x6831 (- 21 ?x5327)) 24003)) (- 1) 0))))
(let ((?x6627 (select ?x400 21)))
(let ((?x1532 (ite (>= ?x4650 (+ ?x6627 ?x5966)) 21 (ite (>= ?x4650 (+ ?x5204 ?x5317)) 20 ?x5719))))
(let ((?x5996 (ite (> 22803 (+ (+ ?x6831 (- 22 ?x5327)) 24003)) 1 (ite (<= 25203 (+ (+ ?x6831 (- 22 ?x5327)) 24003)) (- 1) 0))))
(let ((?x4732 (select ?x400 22)))
(let ((?x548 (ite (> 22803 (+ (+ ?x6831 (- 23 ?x5327)) 24003)) 1 (ite (<= 25203 (+ (+ ?x6831 (- 23 ?x5327)) 24003)) (- 1) 0))))
(let ((?x4773 (select ?x400 23)))
(let ((?x5182 (ite (>= ?x4650 (+ ?x4773 ?x548)) 23 (ite (>= ?x4650 (+ ?x4732 ?x5996)) 22 ?x1532))))
(let ((?x6034 (ite (> 22803 (+ (+ ?x6831 (- 24 ?x5327)) 24003)) 1 (ite (<= 25203 (+ (+ ?x6831 (- 24 ?x5327)) 24003)) (- 1) 0))))
(let ((?x6800 (select ?x400 24)))
(let ((?x1754 (ite (> 22803 (+ (+ ?x6831 (- 25 ?x5327)) 24003)) 1 (ite (<= 25203 (+ (+ ?x6831 (- 25 ?x5327)) 24003)) (- 1) 0))))
(let ((?x6103 (select ?x400 25)))
(let ((?x6106 (ite (>= ?x4650 (+ ?x6103 ?x1754)) 25 (ite (>= ?x4650 (+ ?x6800 ?x6034)) 24 ?x5182))))
(let ((?x7573 (ite (> 22803 (+ (+ ?x6831 (- 26 ?x5327)) 24003)) 1 (ite (<= 25203 (+ (+ ?x6831 (- 26 ?x5327)) 24003)) (- 1) 0))))
(let ((?x3203 (select ?x400 26)))
(let ((?x7380 (ite (> 22803 (+ (+ ?x6831 (- 27 ?x5327)) 24003)) 1 (ite (<= 25203 (+ (+ ?x6831 (- 27 ?x5327)) 24003)) (- 1) 0))))
(let ((?x3359 (select ?x400 27)))
(let ((?x7854 (ite (>= ?x4650 (+ ?x3359 ?x7380)) 27 (ite (>= ?x4650 (+ ?x3203 ?x7573)) 26 ?x6106))))
(let ((?x7072 (ite (> 22803 (+ (+ ?x6831 (- 28 ?x5327)) 24003)) 1 (ite (<= 25203 (+ (+ ?x6831 (- 28 ?x5327)) 24003)) (- 1) 0))))
(let ((?x6344 (select ?x400 28)))
(let ((?x6197 (ite (> 22803 (+ (+ ?x6831 (- 29 ?x5327)) 24003)) 1 (ite (<= 25203 (+ (+ ?x6831 (- 29 ?x5327)) 24003)) (- 1) 0))))
(let ((?x6625 (select ?x400 29)))
(let ((?x7823 (ite (>= ?x4650 (+ ?x6625 ?x6197)) 29 (ite (>= ?x4650 (+ ?x6344 ?x7072)) 28 ?x7854))))
(let ((?x7060 (ite (> 22803 (+ (+ ?x6831 (- 30 ?x5327)) 24003)) 1 (ite (<= 25203 (+ (+ ?x6831 (- 30 ?x5327)) 24003)) (- 1) 0))))
(let ((?x6928 (select ?x400 30)))
(let ((?x7356 (ite (> 22803 (+ (+ ?x6831 (- 31 ?x5327)) 24003)) 1 (ite (<= 25203 (+ (+ ?x6831 (- 31 ?x5327)) 24003)) (- 1) 0))))
(let ((?x3020 (select ?x400 31)))
(let ((?x4720 (ite (>= ?x4650 (+ ?x3020 ?x7356)) 31 (ite (>= ?x4650 (+ ?x6928 ?x7060)) 30 ?x7823))))
(let ((?x7419 (ite (> 22803 (+ (+ ?x6831 (- 32 ?x5327)) 24003)) 1 (ite (<= 25203 (+ (+ ?x6831 (- 32 ?x5327)) 24003)) (- 1) 0))))
(let ((?x4956 (select ?x400 32)))
(let ((?x5334 (ite (> 22803 (+ (+ ?x6831 (- 33 ?x5327)) 24003)) 1 (ite (<= 25203 (+ (+ ?x6831 (- 33 ?x5327)) 24003)) (- 1) 0))))
(let ((?x4552 (select ?x400 33)))
(let ((?x8117 (ite (>= ?x4650 (+ ?x4552 ?x5334)) 33 (ite (>= ?x4650 (+ ?x4956 ?x7419)) 32 ?x4720))))
(let ((?x8122 (ite (> 22803 (+ (+ ?x6831 (- 34 ?x5327)) 24003)) 1 (ite (<= 25203 (+ (+ ?x6831 (- 34 ?x5327)) 24003)) (- 1) 0))))
(let ((?x6002 (select ?x400 34)))
(let ((?x8130 (ite (> 22803 (+ (+ ?x6831 (- 35 ?x5327)) 24003)) 1 (ite (<= 25203 (+ (+ ?x6831 (- 35 ?x5327)) 24003)) (- 1) 0))))
(let ((?x3323 (select ?x400 35)))
(let ((?x7058 (ite (>= ?x4650 (+ ?x3323 ?x8130)) 35 (ite (>= ?x4650 (+ ?x6002 ?x8122)) 34 ?x8117))))
(let ((?x8138 (ite (> 22803 (+ (+ ?x6831 (- 36 ?x5327)) 24003)) 1 (ite (<= 25203 (+ (+ ?x6831 (- 36 ?x5327)) 24003)) (- 1) 0))))
(let ((?x6758 (select ?x400 36)))
(let ((?x8145 (ite (> 22803 (+ (+ ?x6831 (- 37 ?x5327)) 24003)) 1 (ite (<= 25203 (+ (+ ?x6831 (- 37 ?x5327)) 24003)) (- 1) 0))))
(let ((?x1428 (select ?x400 37)))
(let ((?x8147 (ite (>= ?x4650 (+ ?x1428 ?x8145)) 37 (ite (>= ?x4650 (+ ?x6758 ?x8138)) 36 ?x7058))))
(let ((?x8152 (ite (> 22803 (+ (+ ?x6831 (- 38 ?x5327)) 24003)) 1 (ite (<= 25203 (+ (+ ?x6831 (- 38 ?x5327)) 24003)) (- 1) 0))))
(let ((?x6064 (select ?x400 38)))
(let ((?x8160 (ite (> 22803 (+ (+ ?x6831 (- 39 ?x5327)) 24003)) 1 (ite (<= 25203 (+ (+ ?x6831 (- 39 ?x5327)) 24003)) (- 1) 0))))
(let ((?x6893 (select ?x400 39)))
(let ((?x7118 (ite (>= ?x4650 (+ ?x6893 ?x8160)) 39 (ite (>= ?x4650 (+ ?x6064 ?x8152)) 38 ?x8147))))
(let ((?x8168 (ite (> 22803 (+ (+ ?x6831 (- 40 ?x5327)) 24003)) 1 (ite (<= 25203 (+ (+ ?x6831 (- 40 ?x5327)) 24003)) (- 1) 0))))
(let ((?x5299 (select ?x400 40)))
(let ((?x8175 (ite (> 22803 (+ (+ ?x6831 (- 41 ?x5327)) 24003)) 1 (ite (<= 25203 (+ (+ ?x6831 (- 41 ?x5327)) 24003)) (- 1) 0))))
(let ((?x5260 (select ?x400 41)))
(let ((?x8177 (ite (>= ?x4650 (+ ?x5260 ?x8175)) 41 (ite (>= ?x4650 (+ ?x5299 ?x8168)) 40 ?x7118))))
(let ((?x8182 (ite (> 22803 (+ (+ ?x6831 (- 42 ?x5327)) 24003)) 1 (ite (<= 25203 (+ (+ ?x6831 (- 42 ?x5327)) 24003)) (- 1) 0))))
(let ((?x6738 (select ?x400 42)))
(let ((?x8190 (ite (> 22803 (+ (+ ?x6831 (- 43 ?x5327)) 24003)) 1 (ite (<= 25203 (+ (+ ?x6831 (- 43 ?x5327)) 24003)) (- 1) 0))))
(let ((?x6900 (select ?x400 43)))
(let ((?x7178 (ite (>= ?x4650 (+ ?x6900 ?x8190)) 43 (ite (>= ?x4650 (+ ?x6738 ?x8182)) 42 ?x8177))))
(let ((?x8198 (ite (> 22803 (+ (+ ?x6831 (- 44 ?x5327)) 24003)) 1 (ite (<= 25203 (+ (+ ?x6831 (- 44 ?x5327)) 24003)) (- 1) 0))))
(let ((?x6673 (select ?x400 44)))
(let ((?x8205 (ite (> 22803 (+ (+ ?x6831 (- 45 ?x5327)) 24003)) 1 (ite (<= 25203 (+ (+ ?x6831 (- 45 ?x5327)) 24003)) (- 1) 0))))
(let ((?x5015 (select ?x400 45)))
(let ((?x8207 (ite (>= ?x4650 (+ ?x5015 ?x8205)) 45 (ite (>= ?x4650 (+ ?x6673 ?x8198)) 44 ?x7178))))
(let ((?x8212 (ite (> 22803 (+ (+ ?x6831 (- 46 ?x5327)) 24003)) 1 (ite (<= 25203 (+ (+ ?x6831 (- 46 ?x5327)) 24003)) (- 1) 0))))
(let ((?x2157 (select ?x400 46)))
(let ((?x8220 (ite (> 22803 (+ (+ ?x6831 (- 47 ?x5327)) 24003)) 1 (ite (<= 25203 (+ (+ ?x6831 (- 47 ?x5327)) 24003)) (- 1) 0))))
(let ((?x4780 (select ?x400 47)))
(let ((?x7238 (ite (>= ?x4650 (+ ?x4780 ?x8220)) 47 (ite (>= ?x4650 (+ ?x2157 ?x8212)) 46 ?x8207))))
(let ((?x7241 (+ ?x6831 (- ?x7238 ?x5327))))
(let ((?x8224 (+ ?x7241 24003)))
(let ((?x8229 (+ (select ?x400 ?x7238) (ite (> 22803 ?x8224) 1 (ite (<= 25203 ?x8224) (- 1) 0)))))
(let ((?x7253 (- ?x4650 ?x8229)))
(let ((?x8234 (ite (or (= 22802 ?x8224) (= 25202 ?x8224)) 28 (select ?x306 ?x7238))))
(let ((?x5462 (+ x_months 12)))
(let ((?x3284 (mod ?x5462 48)))
(let ((?x5408 (ite (> 22803 (+ ?x5462 24003)) 1 (ite (<= 25203 (+ ?x5462 24003)) (- 1) 0))))
(let ((?x5361 (ite (or (= 22802 (+ ?x5462 24003)) (= 25202 (+ ?x5462 24003))) 28 (select ?x306 ?x3284))))
(let ((?x5913 (- ?x5361 1)))
(let ((?x5684 (+ (select ?x400 ?x3284) (ite $x5915 0 (ite (> x_beta ?x5913) ?x5913 x_beta)))))
(let ((?x2207 (+ (+ ?x5684 ?x5408) 0)))
(let ((?x4899 (+ ?x5462 (* (div ?x2207 1461) 48))))
(let ((?x5637 (+ (+ ?x4899 (- 1 ?x3284)) 24003)))
(let ((?x1478 (mod ?x2207 1461)))
(let (($x2734 (>= ?x1478 (+ ?x5134 (ite (> 22803 ?x5637) 1 (ite (<= 25203 ?x5637) (- 1) 0))))))
(let ((?x5306 (ite (> 22803 (+ (+ ?x4899 (- 2 ?x3284)) 24003)) 1 (ite (<= 25203 (+ (+ ?x4899 (- 2 ?x3284)) 24003)) (- 1) 0))))
(let ((?x2530 (ite (> 22803 (+ (+ ?x4899 (- 3 ?x3284)) 24003)) 1 (ite (<= 25203 (+ (+ ?x4899 (- 3 ?x3284)) 24003)) (- 1) 0))))
(let ((?x4441 (ite (>= ?x1478 (+ ?x4394 ?x2530)) 3 (ite (>= ?x1478 (+ ?x5386 ?x5306)) 2 (ite $x2734 1 0)))))
(let ((?x1745 (ite (> 22803 (+ (+ ?x4899 (- 4 ?x3284)) 24003)) 1 (ite (<= 25203 (+ (+ ?x4899 (- 4 ?x3284)) 24003)) (- 1) 0))))
(let ((?x5563 (ite (> 22803 (+ (+ ?x4899 (- 5 ?x3284)) 24003)) 1 (ite (<= 25203 (+ (+ ?x4899 (- 5 ?x3284)) 24003)) (- 1) 0))))
(let ((?x5091 (ite (>= ?x1478 (+ ?x5790 ?x5563)) 5 (ite (>= ?x1478 (+ ?x5743 ?x1745)) 4 ?x4441))))
(let ((?x2117 (ite (> 22803 (+ (+ ?x4899 (- 6 ?x3284)) 24003)) 1 (ite (<= 25203 (+ (+ ?x4899 (- 6 ?x3284)) 24003)) (- 1) 0))))
(let ((?x1287 (ite (> 22803 (+ (+ ?x4899 (- 7 ?x3284)) 24003)) 1 (ite (<= 25203 (+ (+ ?x4899 (- 7 ?x3284)) 24003)) (- 1) 0))))
(let ((?x4708 (ite (>= ?x1478 (+ ?x5246 ?x1287)) 7 (ite (>= ?x1478 (+ ?x5409 ?x2117)) 6 ?x5091))))
(let ((?x3765 (ite (> 22803 (+ (+ ?x4899 (- 8 ?x3284)) 24003)) 1 (ite (<= 25203 (+ (+ ?x4899 (- 8 ?x3284)) 24003)) (- 1) 0))))
(let ((?x5737 (ite (> 22803 (+ (+ ?x4899 (- 9 ?x3284)) 24003)) 1 (ite (<= 25203 (+ (+ ?x4899 (- 9 ?x3284)) 24003)) (- 1) 0))))
(let ((?x5957 (ite (>= ?x1478 (+ ?x6953 ?x5737)) 9 (ite (>= ?x1478 (+ ?x4845 ?x3765)) 8 ?x4708))))
(let ((?x465 (ite (> 22803 (+ (+ ?x4899 (- 10 ?x3284)) 24003)) 1 (ite (<= 25203 (+ (+ ?x4899 (- 10 ?x3284)) 24003)) (- 1) 0))))
(let ((?x5022 (ite (> 22803 (+ (+ ?x4899 (- 11 ?x3284)) 24003)) 1 (ite (<= 25203 (+ (+ ?x4899 (- 11 ?x3284)) 24003)) (- 1) 0))))
(let ((?x1469 (ite (>= ?x1478 (+ ?x4457 ?x5022)) 11 (ite (>= ?x1478 (+ ?x5271 ?x465)) 10 ?x5957))))
(let ((?x2287 (ite (> 22803 (+ (+ ?x4899 (- 12 ?x3284)) 24003)) 1 (ite (<= 25203 (+ (+ ?x4899 (- 12 ?x3284)) 24003)) (- 1) 0))))
(let ((?x5407 (ite (> 22803 (+ (+ ?x4899 (- 13 ?x3284)) 24003)) 1 (ite (<= 25203 (+ (+ ?x4899 (- 13 ?x3284)) 24003)) (- 1) 0))))
(let ((?x5243 (ite (>= ?x1478 (+ ?x4364 ?x5407)) 13 (ite (>= ?x1478 (+ ?x2465 ?x2287)) 12 ?x1469))))
(let ((?x5068 (ite (> 22803 (+ (+ ?x4899 (- 14 ?x3284)) 24003)) 1 (ite (<= 25203 (+ (+ ?x4899 (- 14 ?x3284)) 24003)) (- 1) 0))))
(let ((?x3923 (ite (> 22803 (+ (+ ?x4899 (- 15 ?x3284)) 24003)) 1 (ite (<= 25203 (+ (+ ?x4899 (- 15 ?x3284)) 24003)) (- 1) 0))))
(let ((?x5250 (ite (>= ?x1478 (+ ?x1452 ?x3923)) 15 (ite (>= ?x1478 (+ ?x4181 ?x5068)) 14 ?x5243))))
(let ((?x4259 (ite (> 22803 (+ (+ ?x4899 (- 16 ?x3284)) 24003)) 1 (ite (<= 25203 (+ (+ ?x4899 (- 16 ?x3284)) 24003)) (- 1) 0))))
(let ((?x2666 (ite (> 22803 (+ (+ ?x4899 (- 17 ?x3284)) 24003)) 1 (ite (<= 25203 (+ (+ ?x4899 (- 17 ?x3284)) 24003)) (- 1) 0))))
(let ((?x1834 (ite (>= ?x1478 (+ ?x5499 ?x2666)) 17 (ite (>= ?x1478 (+ ?x5903 ?x4259)) 16 ?x5250))))
(let ((?x5289 (ite (> 22803 (+ (+ ?x4899 (- 18 ?x3284)) 24003)) 1 (ite (<= 25203 (+ (+ ?x4899 (- 18 ?x3284)) 24003)) (- 1) 0))))
(let ((?x4763 (ite (> 22803 (+ (+ ?x4899 (- 19 ?x3284)) 24003)) 1 (ite (<= 25203 (+ (+ ?x4899 (- 19 ?x3284)) 24003)) (- 1) 0))))
(let ((?x7001 (ite (>= ?x1478 (+ ?x3177 ?x4763)) 19 (ite (>= ?x1478 (+ ?x5586 ?x5289)) 18 ?x1834))))
(let ((?x6610 (ite (> 22803 (+ (+ ?x4899 (- 20 ?x3284)) 24003)) 1 (ite (<= 25203 (+ (+ ?x4899 (- 20 ?x3284)) 24003)) (- 1) 0))))
(let ((?x6867 (ite (> 22803 (+ (+ ?x4899 (- 21 ?x3284)) 24003)) 1 (ite (<= 25203 (+ (+ ?x4899 (- 21 ?x3284)) 24003)) (- 1) 0))))
(let ((?x6073 (ite (>= ?x1478 (+ ?x6627 ?x6867)) 21 (ite (>= ?x1478 (+ ?x5204 ?x6610)) 20 ?x7001))))
(let ((?x6866 (ite (> 22803 (+ (+ ?x4899 (- 22 ?x3284)) 24003)) 1 (ite (<= 25203 (+ (+ ?x4899 (- 22 ?x3284)) 24003)) (- 1) 0))))
(let ((?x6139 (ite (> 22803 (+ (+ ?x4899 (- 23 ?x3284)) 24003)) 1 (ite (<= 25203 (+ (+ ?x4899 (- 23 ?x3284)) 24003)) (- 1) 0))))
(let ((?x5515 (ite (>= ?x1478 (+ ?x4773 ?x6139)) 23 (ite (>= ?x1478 (+ ?x4732 ?x6866)) 22 ?x6073))))
(let ((?x5160 (ite (> 22803 (+ (+ ?x4899 (- 24 ?x3284)) 24003)) 1 (ite (<= 25203 (+ (+ ?x4899 (- 24 ?x3284)) 24003)) (- 1) 0))))
(let ((?x2810 (ite (> 22803 (+ (+ ?x4899 (- 25 ?x3284)) 24003)) 1 (ite (<= 25203 (+ (+ ?x4899 (- 25 ?x3284)) 24003)) (- 1) 0))))
(let ((?x5452 (ite (>= ?x1478 (+ ?x6103 ?x2810)) 25 (ite (>= ?x1478 (+ ?x6800 ?x5160)) 24 ?x5515))))
(let ((?x6149 (ite (> 22803 (+ (+ ?x4899 (- 26 ?x3284)) 24003)) 1 (ite (<= 25203 (+ (+ ?x4899 (- 26 ?x3284)) 24003)) (- 1) 0))))
(let ((?x6206 (ite (> 22803 (+ (+ ?x4899 (- 27 ?x3284)) 24003)) 1 (ite (<= 25203 (+ (+ ?x4899 (- 27 ?x3284)) 24003)) (- 1) 0))))
(let ((?x5124 (ite (>= ?x1478 (+ ?x3359 ?x6206)) 27 (ite (>= ?x1478 (+ ?x3203 ?x6149)) 26 ?x5452))))
(let ((?x6925 (ite (> 22803 (+ (+ ?x4899 (- 28 ?x3284)) 24003)) 1 (ite (<= 25203 (+ (+ ?x4899 (- 28 ?x3284)) 24003)) (- 1) 0))))
(let ((?x888 (ite (> 22803 (+ (+ ?x4899 (- 29 ?x3284)) 24003)) 1 (ite (<= 25203 (+ (+ ?x4899 (- 29 ?x3284)) 24003)) (- 1) 0))))
(let ((?x1851 (ite (>= ?x1478 (+ ?x6625 ?x888)) 29 (ite (>= ?x1478 (+ ?x6344 ?x6925)) 28 ?x5124))))
(let ((?x6907 (ite (> 22803 (+ (+ ?x4899 (- 30 ?x3284)) 24003)) 1 (ite (<= 25203 (+ (+ ?x4899 (- 30 ?x3284)) 24003)) (- 1) 0))))
(let ((?x6826 (ite (> 22803 (+ (+ ?x4899 (- 31 ?x3284)) 24003)) 1 (ite (<= 25203 (+ (+ ?x4899 (- 31 ?x3284)) 24003)) (- 1) 0))))
(let ((?x4643 (ite (>= ?x1478 (+ ?x3020 ?x6826)) 31 (ite (>= ?x1478 (+ ?x6928 ?x6907)) 30 ?x1851))))
(let ((?x5895 (ite (> 22803 (+ (+ ?x4899 (- 32 ?x3284)) 24003)) 1 (ite (<= 25203 (+ (+ ?x4899 (- 32 ?x3284)) 24003)) (- 1) 0))))
(let ((?x5531 (ite (> 22803 (+ (+ ?x4899 (- 33 ?x3284)) 24003)) 1 (ite (<= 25203 (+ (+ ?x4899 (- 33 ?x3284)) 24003)) (- 1) 0))))
(let ((?x6376 (ite (>= ?x1478 (+ ?x4552 ?x5531)) 33 (ite (>= ?x1478 (+ ?x4956 ?x5895)) 32 ?x4643))))
(let ((?x2388 (ite (> 22803 (+ (+ ?x4899 (- 34 ?x3284)) 24003)) 1 (ite (<= 25203 (+ (+ ?x4899 (- 34 ?x3284)) 24003)) (- 1) 0))))
(let ((?x5511 (ite (> 22803 (+ (+ ?x4899 (- 35 ?x3284)) 24003)) 1 (ite (<= 25203 (+ (+ ?x4899 (- 35 ?x3284)) 24003)) (- 1) 0))))
(let ((?x5007 (ite (>= ?x1478 (+ ?x3323 ?x5511)) 35 (ite (>= ?x1478 (+ ?x6002 ?x2388)) 34 ?x6376))))
(let ((?x4508 (ite (> 22803 (+ (+ ?x4899 (- 36 ?x3284)) 24003)) 1 (ite (<= 25203 (+ (+ ?x4899 (- 36 ?x3284)) 24003)) (- 1) 0))))
(let ((?x4286 (ite (> 22803 (+ (+ ?x4899 (- 37 ?x3284)) 24003)) 1 (ite (<= 25203 (+ (+ ?x4899 (- 37 ?x3284)) 24003)) (- 1) 0))))
(let ((?x3912 (ite (>= ?x1478 (+ ?x1428 ?x4286)) 37 (ite (>= ?x1478 (+ ?x6758 ?x4508)) 36 ?x5007))))
(let ((?x6065 (ite (> 22803 (+ (+ ?x4899 (- 38 ?x3284)) 24003)) 1 (ite (<= 25203 (+ (+ ?x4899 (- 38 ?x3284)) 24003)) (- 1) 0))))
(let ((?x4478 (ite (> 22803 (+ (+ ?x4899 (- 39 ?x3284)) 24003)) 1 (ite (<= 25203 (+ (+ ?x4899 (- 39 ?x3284)) 24003)) (- 1) 0))))
(let ((?x5820 (ite (>= ?x1478 (+ ?x6893 ?x4478)) 39 (ite (>= ?x1478 (+ ?x6064 ?x6065)) 38 ?x3912))))
(let ((?x5865 (ite (> 22803 (+ (+ ?x4899 (- 40 ?x3284)) 24003)) 1 (ite (<= 25203 (+ (+ ?x4899 (- 40 ?x3284)) 24003)) (- 1) 0))))
(let ((?x6560 (ite (> 22803 (+ (+ ?x4899 (- 41 ?x3284)) 24003)) 1 (ite (<= 25203 (+ (+ ?x4899 (- 41 ?x3284)) 24003)) (- 1) 0))))
(let ((?x3563 (ite (>= ?x1478 (+ ?x5260 ?x6560)) 41 (ite (>= ?x1478 (+ ?x5299 ?x5865)) 40 ?x5820))))
(let ((?x4506 (ite (> 22803 (+ (+ ?x4899 (- 42 ?x3284)) 24003)) 1 (ite (<= 25203 (+ (+ ?x4899 (- 42 ?x3284)) 24003)) (- 1) 0))))
(let ((?x2873 (ite (> 22803 (+ (+ ?x4899 (- 43 ?x3284)) 24003)) 1 (ite (<= 25203 (+ (+ ?x4899 (- 43 ?x3284)) 24003)) (- 1) 0))))
(let ((?x6481 (ite (>= ?x1478 (+ ?x6900 ?x2873)) 43 (ite (>= ?x1478 (+ ?x6738 ?x4506)) 42 ?x3563))))
(let ((?x6440 (ite (> 22803 (+ (+ ?x4899 (- 44 ?x3284)) 24003)) 1 (ite (<= 25203 (+ (+ ?x4899 (- 44 ?x3284)) 24003)) (- 1) 0))))
(let ((?x6647 (ite (> 22803 (+ (+ ?x4899 (- 45 ?x3284)) 24003)) 1 (ite (<= 25203 (+ (+ ?x4899 (- 45 ?x3284)) 24003)) (- 1) 0))))
(let ((?x4744 (ite (>= ?x1478 (+ ?x5015 ?x6647)) 45 (ite (>= ?x1478 (+ ?x6673 ?x6440)) 44 ?x6481))))
(let ((?x4683 (ite (> 22803 (+ (+ ?x4899 (- 46 ?x3284)) 24003)) 1 (ite (<= 25203 (+ (+ ?x4899 (- 46 ?x3284)) 24003)) (- 1) 0))))
(let ((?x6937 (ite (> 22803 (+ (+ ?x4899 (- 47 ?x3284)) 24003)) 1 (ite (<= 25203 (+ (+ ?x4899 (- 47 ?x3284)) 24003)) (- 1) 0))))
(let ((?x6845 (ite (>= ?x1478 (+ ?x4780 ?x6937)) 47 (ite (>= ?x1478 (+ ?x2157 ?x4683)) 46 ?x4744))))
(let ((?x4691 (+ ?x4899 (- ?x6845 ?x3284))))
(let ((?x6532 (+ ?x4691 24003)))
(let ((?x5831 (+ (select ?x400 ?x6845) (ite (> 22803 ?x6532) 1 (ite (<= 25203 ?x6532) (- 1) 0)))))
(let ((?x5490 (- ?x1478 ?x5831)))
(let ((?x6624 (ite (or (= 22802 ?x6532) (= 25202 ?x6532)) 28 (select ?x306 ?x6845))))
(let (($x8238 (= (ite (= 1 (ite (>= ?x5490 ?x6624) 1 0)) (- ?x5490 ?x6624) ?x5490) (ite (= 1 (ite (>= ?x7253 ?x8234) 1 0)) (- ?x7253 ?x8234) ?x7253))))
(let (($x6435 (= (+ ?x4691 (ite (>= ?x5490 ?x6624) 1 0)) (+ ?x7241 (ite (>= ?x7253 ?x8234) 1 0)))))
(not (and $x6435 $x8238))))))))))))))))))))))))))))))))))))))))))))))))))))))))))))))))))))))))))))))))))))))))))))))))))))))))))))))))))))))))))))))))))))))))))))))))))))))))))))))))))))))))))))))))))))))))))))))))))))))))))))))))))))))))))))))))))))))))))))))))))))))))))))))))))))))))))))))))))))))))))))
(check-sat)
